
  18    0


   0   9 2 3 4 5 6 14 15 16 17 
   1   5 13 12 11 10 7 
   2   3 9 8 7 
   1   2 8 7 
   8   1 7 
   5   1 7 
   6   1 18
   9   1 18
   1   1 18
   1   1 18
   9   1 18
   5   1 18
   6   1 18
   8   1 18
   8   1 18
   5   1 18
   5   1 18
   0   0 
